c CNF
c from Selman's wff generator
p cnf 10  45
-10 -5 9 0
9 -3 -2 0
9 8 3 0
-8 3 -2 0
1 -5 7 0
-1 -5 7 0
10 8 4 0
9 10 1 0
2 -5 -10 0
-10 -7 2 0
4 -5 1 0
2 1 3 0
3 2 -7 0
9 -10 -8 0
3 7 9 0
-5 -10 2 0
9 -6 -5 0
4 1 7 0
-9 -3 2 0
4 -9 7 0
3 4 -2 0
7 10 3 0
7 5 -2 0
-5 -4 9 0
7 -4 3 0
-5 9 -6 0
-4 10 -7 0
-8 -7 -2 0
4 5 -10 0
-6 -7 -3 0
10 5 -7 0
-1 -4 -10 0
4 -7 -6 0
-1 9 -10 0
9 6 -7 0
-9 -3 1 0
6 8 5 0
-4 8 -2 0
5 2 -6 0
5 10 -2 0
6 -9 -7 0
10 -3 -2 0
9 -4 8 0
-7 -2 8 0
-8 9 -2 0
